budget=Srodki pieniezne [PLN];
minGain=Pozadany zysk [%];
nCurrencies=9;
nSamples=7;
names=["08OCTAVA","11BIT","4FUNMEDIA","AATHOLD","ABCDATA","ABMSOLID","ABPL","ACAUTOGAZ","ACAUTOGAZ"];
quotes=[
[5.75,18.38,3.44,7.55,30.23,39.30,39.30]
[1.15,74.19,5.75,18.38,3.44,7.55,30.23,39.30,39.30]
[1.15,74.19,5.75,18.38,3.44,7.55,30.23,39.30,39.30]
[1.15,74.19,5.75,18.38,3.44,7.55,30.23,39.30,39.30]
[1.15,74.19,5.75,18.38,3.44,7.55,30.23,39.30,39.30]
[1.15,74.19,5.75,18.38,3.44,7.55,30.23,39.30,39.30]
[1.15,74.19,5.75,18.38,3.44,7.55,30.23,39.30,39.30]
];